SDVRP instances/custom_instances/p01_27_splitx10_0.vrp
NAME:p01_27_splitx10_
BEST_KNOWN: 0
COMMENT: 0
DIMENSION: 234
CAPACITY: 1600
EDGE_WEIGHT_FORMAT: FUNCTION
EDGE_WEIGHT_TYPE: EXACT_2D
NODE_COORD_SECTION
1 0.00000 0.00000
2 -49 19
3 -49 19
4 -49 19
5 -49 19
6 -49 19
7 16 45
8 16 45
9 16 45
10 16 45
11 16 45
12 16 45
13 16 45
14 16 45
15 -17 45
16 -17 45
17 -17 45
18 -17 45
19 -17 45
20 -17 45
21 -16 -5
22 -16 -5
23 -16 -5
24 -16 -5
25 -16 -5
26 -16 -5
27 22 9
28 22 9
29 22 9
30 -8 -32
31 -8 -32
32 -8 -32
33 -8 -32
34 -8 -32
35 -8 -32
36 -8 -32
37 -18 -29
38 -18 -29
39 -18 -29
40 -18 -29
41 -18 27
42 -18 27
43 -18 27
44 -18 27
45 -18 27
46 -13 0
47 -13 0
48 -7 46
49 -7 46
50 -36 -19
51 -36 -19
52 -36 -19
53 -36 -19
54 28 -21
55 28 -21
56 -47 32
57 -47 32
58 -47 32
59 -47 32
60 -47 32
61 -47 32
62 -21 19
63 -21 19
64 -21 19
65 -21 19
66 -21 19
67 -21 19
68 -21 -45
69 -21 -45
70 -21 -45
71 28 35
72 28 35
73 28 35
74 28 35
75 28 35
76 28 35
77 -38 -22
78 -38 -22
79 -38 -22
80 -38 -22
81 -17 42
82 -17 42
83 -17 42
84 18 15
85 18 15
86 18 15
87 18 15
88 18 15
89 18 15
90 6 -20
91 6 -20
92 6 -20
93 6 -20
94 6 -20
95 6 -20
96 8 9
97 8 9
98 8 9
99 8 9
100 11 -5
101 11 -5
102 11 -5
103 11 -5
104 11 -5
105 11 -5
106 11 -5
107 11 -5
108 28 -50
109 28 -50
110 28 -50
111 -33 32
112 -33 32
113 -33 32
114 -33 32
115 -33 32
116 -33 32
117 -33 32
118 -23 -33
119 -23 -33
120 -23 -33
121 -23 -33
122 -23 -33
123 31 -32
124 31 -32
125 33 -9
126 33 -9
127 33 -9
128 33 -9
129 33 -9
130 33 -9
131 -48 46
132 -48 46
133 35 48
134 35 48
135 35 48
136 35 48
137 35 48
138 35 48
139 35 48
140 24 31
141 24 31
142 24 31
143 24 31
144 24 31
145 24 31
146 17 31
147 17 31
148 17 31
149 17 31
150 -7 7
151 -7 7
152 -7 7
153 -7 7
154 -7 7
155 -7 7
156 -15 -34
157 8 -16
158 8 -16
159 8 -16
160 8 -16
161 8 -16
162 8 -16
163 8 -16
164 4 -6
165 0 -40
166 0 -40
167 0 -40
168 0 -40
169 0 -40
170 -35 18
171 -35 18
172 25 6
173 25 6
174 25 6
175 5 -6
176 -7 35
177 -7 35
178 -7 35
179 -7 35
180 -7 35
181 -7 35
182 -49 30
183 0 -19
184 0 -19
185 0 -19
186 0 -19
187 0 -19
188 0 -19
189 14 -33
190 14 -33
191 14 -33
192 14 -33
193 14 -33
194 14 -33
195 14 -33
196 48 5
197 48 5
198 48 5
199 48 5
200 48 5
201 -25 22
202 -25 22
203 -25 22
204 -25 22
205 -25 22
206 -25 22
207 -25 22
208 -35 -19
209 -35 -19
210 -35 -19
211 -35 -19
212 -35 -19
213 -35 -19
214 -35 -19
215 38 -8
216 38 -8
217 38 -8
218 38 -8
219 47 36
220 47 36
221 47 36
222 47 36
223 47 36
224 47 36
225 34 35
226 34 35
227 34 35
228 34 35
229 34 35
230 34 35
231 -28 6
232 -28 6
233 -28 6
234 -28 6
DEMAND_SECTION
1 0
2 320
3 320
4 16
5 16
6 8
7 320
8 320
9 80
10 16
11 16
12 16
13 16
14 6
15 320
16 160
17 80
18 16
19 16
20 8
21 320
22 320
23 16
24 16
25 16
26 12
27 320
28 16
29 4
30 320
31 320
32 16
33 16
34 16
35 16
36 6
37 320
38 160
39 16
40 14
41 160
42 80
43 16
44 16
45 8
46 160
47 80
48 320
49 80
50 320
51 320
52 80
53 10
54 160
55 80
56 320
57 80
58 16
59 16
60 16
61 12
62 160
63 80
64 16
65 16
66 16
67 12
68 320
69 16
70 4
71 320
72 320
73 16
74 16
75 16
76 12
77 320
78 80
79 16
80 4
81 320
82 160
83 80
84 160
85 80
86 16
87 16
88 16
89 12
90 320
91 160
92 16
93 16
94 16
95 12
96 320
97 16
98 16
99 8
100 320
101 160
102 80
103 16
104 16
105 16
106 16
107 6
108 320
109 320
110 160
111 320
112 320
113 80
114 16
115 16
116 16
117 12
118 320
119 160
120 80
121 16
122 4
123 320
124 80
125 320
126 160
127 16
128 16
129 16
130 2
131 320
132 160
133 320
134 160
135 80
136 16
137 16
138 16
139 12
140 320
141 320
142 16
143 16
144 16
145 12
146 320
147 16
148 16
149 8
150 160
151 80
152 16
153 16
154 16
155 12
156 320
157 160
158 80
159 16
160 16
161 16
162 16
163 6
164 320
165 320
166 160
167 80
168 16
169 14
170 320
171 160
172 320
173 16
174 14
175 320
176 320
177 320
178 80
179 16
180 16
181 8
182 320
183 160
184 80
185 16
186 16
187 16
188 12
189 320
190 320
191 80
192 16
193 16
194 16
195 12
196 160
197 16
198 16
199 16
200 2
201 320
202 320
203 80
204 16
205 16
206 16
207 2
208 320
209 80
210 16
211 16
212 16
213 16
214 6
215 160
216 80
217 16
218 4
219 320
220 16
221 16
222 16
223 16
224 6
225 160
226 80
227 16
228 16
229 16
230 12
231 320
232 320
233 80
234 10
DEPOT_SECTION
1
-1
EOF