SDVRP instances/custom_instances/p01_27_splitx10_0.sol
233 -1 5 2 3 4 181 55 56 58 60 59 57 153 152 151 154 150 -7 12 6 8 10 11 9 13 148 145 147 146 84 95 97 96 98 -22 21 20 24 25 23 45 46 -27 28 26 173 172 171 215 216 214 217 128 129 124 126 127 125 -37 36 39 38 69 67 68 118 121 119 120 117 211 209 213 -43 42 40 131 130 114 115 110 116 112 111 113 206 205 64 62 -47 48 19 17 14 15 18 16 82 80 81 -53 54 123 122 108 109 107 190 193 194 191 -79 78 77 76 52 51 49 50 210 208 207 212 -88 87 83 86 85 73 71 74 70 72 75 139 140 143 -92 93 91 94 89 90 30 34 31 29 35 32 33 155 -102 105 103 106 101 104 99 100 158 157 161 159 160 162 156 174 163 -142 141 144 227 225 229 228 226 224 138 134 135 136 133 132 137 223 221 218 220 222 219 199 195 198 197 196 -149 61 65 66 63 169 170 230 233 231 232 -179 178 180 176 175 177 41 44 200 202 201 203 204 -187 186 184 183 185 182 164 168 167 165 166 188 189 192 0 





OBJ=
1561.602
BEST_KNOWN=
0.000